500
1000
380
380
380
379
379
379
379
378
378
378
377
376
376
376
374
372
372
372
370
370
369
368
368
367
366
366
366
366
365
365
365
364
364
363
361
361
361
360
358
358
358
357
356
356
356
356
355
354
353
351
351
350
350
349
349
349
348
343
342
342
340
340
339
337
337
336
336
336
334
334
333
332
331
330
330
330
328
328
327
326
325
324
324
322
322
322
321
321
320
320
320
320
319
319
318
318
316
315
313
312
311
310
310
310
309
308
308
308
308
307
305
305
305
305
305
304
303
303
302
301
300
297
297
297
296
294
294
291
291
290
290
290
289
289
288
288
287
287
284
284
283
283
282
282
280
280
280
279
279
279
278
277
277
277
277
277
276
275
275
272
270
269
268
268
268
267
267
267
266
266
265
263
261
258
258
257
257
256
253
252
252
250
250
249
249
248
247
246
246
245
245
244
244
242
242
241
241
241
241
239
239
237
235
234
233
233
228
228
226
226
226
225
224
224
223
223
222
221
221
221
220
219
218
218
218
217
217
216
215
214
213
213
213
212
210
209
208
208
207
207
206
205
203
202
201
201
201
200
198
196
193
193
193
192
191
191
190
189
188
187
187
185
184
183
183
182
181
181
181
181
180
179
178
178
178
175
175
175
174
174
174
174
173
173
173
172
172
172
170
170
169
169
167
167
166
166
166
166
165
164
164
164
163
162
162
162
161
161
160
159
157
157
157
156
156
154
153
151
151
149
149
149
148
147
147
147
147
146
143
143
141
140
139
138
138
138
136
136
134
131
131
129
128
128
128
127
125
124
124
123
122
122
121
121
120
120
119
117
115
114
113
113
113
112
112
112
110
110
108
108
108
107
106
105
104
104
104
103
101
100
100
100
100
99
98
98
95
95
94
94
94
94
93
93
92
92
92
92
92
92
91
90
89
89
87
87
85
84
84
83
82
81
79
78
78
78
77
76
75
75
74
72
71
71
71
70
69
68
67
66
66
66
66
65
64
63
63
63
62
61
61
61
60
59
59
58
57
57
56
54
53
52
52
52
52
51
51
50
50
48
48
46
46
45
44
44
43
43
39
39
39
38
38
37
36
35
35
34
34
33
33
32
32
31
31
30
30
30
27
27
27
26
25
25
25
24
24
23
23
22
